Version identifier: 12.10.0.0 | 2019-11-26 | 843d4de
CPXPARAM_WorkMem                                 16384
CPXPARAM_MIP_Limits_TreeMemory                   24576
Tried aggregator 2 times.
MIP Presolve eliminated 28 rows and 0 columns.
MIP Presolve added 56 rows and 0 columns.
Aggregator did 60 substitutions.
Reduced MIP has 130 rows, 110 columns, and 490 nonzeros.
Reduced MIP has 110 binaries, 0 generals, 0 SOSs, and 0 indicators.
Presolve time = 0,00 sec. (1,11 ticks)
Found incumbent of value 1989,000000 after 0,00 sec. (1,25 ticks)
Probing time = 0,00 sec. (0,68 ticks)
Tried aggregator 1 time.
Detecting symmetries...
Reduced MIP has 130 rows, 110 columns, and 490 nonzeros.
Reduced MIP has 110 binaries, 0 generals, 0 SOSs, and 0 indicators.
Presolve time = 0,00 sec. (0,44 ticks)
Probing time = 0,00 sec. (0,67 ticks)
Clique table members: 405.
MIP emphasis: balance optimality and feasibility.
MIP search method: dynamic search.
Parallel mode: deterministic, using up to 16 threads.
Root relaxation solution time = 0,00 sec. (0,30 ticks)

        Nodes                                         Cuts/
   Node  Left     Objective  IInf  Best Integer    Best Bound    ItCnt     Gap

*     0+    0                         1989,0000        0,0000           100,00%
      0     0     1092,0000   110     1989,0000     1092,0000       49   45,10%
*     0+    0                         1939,0000     1092,0000            43,68%
      0     0     1195,8926   110     1939,0000     Cuts: 111       98   38,32%
*     0+    0                         1933,0000     1195,8926            38,13%
      0     0     1232,8098   110     1933,0000      Cuts: 75      138   36,22%
      0     0     1234,4511   110     1933,0000     Cuts: 103      155   36,14%
*     0+    0                         1900,0000     1234,4511            35,03%
*     0+    0                         1868,0000     1234,4511            33,92%
      0     0        cutoff           1868,0000     1868,0000      155    0,00%
Elapsed time = 0,08 sec. (26,76 ticks, tree = 0,01 MB, solutions = 5)

Clique cuts applied:  27
Cover cuts applied:  25
Implied bound cuts applied:  83
Flow cuts applied:  13
Mixed integer rounding cuts applied:  36
Zero-half cuts applied:  1
Gomory fractional cuts applied:  10

Root node processing (before b&c):
  Real time             =    0,08 sec. (26,78 ticks)
Parallel b&c, 16 threads:
  Real time             =    0,00 sec. (0,00 ticks)
  Sync time (average)   =    0,00 sec.
  Wait time (average)   =    0,00 sec.
                          ------------
Total (root+branch&cut) =    0,08 sec. (26,78 ticks)
